24

1 19 22
2 13 1
3 8 1
4 9 22
5 18 16
6 24 2
7 23 20
8 14 18
9 12 6
10 5 16
11 15 20
12 20 7
13 10 13
14 15 23
15 15 15
16 6 23
17 8 2
18 7 10
19 6 19
20 13 19
21 24 20
22 4 21
23 22 14
24 9 16

110
